     Program PWSCF v.7.2 starts on 19Jun2025 at 12:56:31

     Reading input from mos2.scf.in

     Current dimensions of program PWSCF are:
     Max number of different atomic species (ntypx) = 10
     Max number of k-points (npk) =  40000
     Max angular momentum in pseudopotentials (lmaxx) =  4
     Message from routine setup:
     using ibrav=0 with symmetry is DISCOURAGED, use correct ibrav instead

     R & G space division:  proc/nbgrp/npool/nimage =      20
     Subspace diagonalization in iterative solution of the eigenvalue problem:
     a serial algorithm will be used

     Using Slab Decomposition

     bravais-lattice index     =            0
     lattice parameter (alat)  =       6.0137  a.u.
     unit-cell volume          =    1074.4427 (a.u.)^3
     number of atoms/cell      =            3
     number of atomic types    =            2
     number of electrons       =        26.00
     number of Kohn-Sham states=           34
     kinetic-energy cutoff     =     120.0000  Ry
     charge density cutoff     =    1200.0000  Ry
     scf convergence threshold =      1.0E-07
     mixing beta               =       0.1000
     number of iterations used =            8  plain     mixing
     Exchange-correlation= LDA
                           (   1   1   0   0   0   0   0)
     Non magnetic calculation with spin-orbit

     celldm(1)=   6.013746  celldm(2)=   0.000000  celldm(3)=   0.000000
     celldm(4)=   0.000000  celldm(5)=   0.000000  celldm(6)=   0.000000

     crystal axes: (cart. coord. in units of alat)
               a(1) = (   1.000000  -0.000000   0.000000 )
               a(2) = (  -0.500000   0.866025   0.000000 )
               a(3) = (   0.000000   0.000000   5.704496 )

     reciprocal axes: (cart. coord. in units 2 pi/alat)
               b(1) = (  1.000000  0.577350 -0.000000 )
               b(2) = (  0.000000  1.154701 -0.000000 )
               b(3) = ( -0.000000 -0.000000  0.175300 )

     PseudoPot. # 1 for Mo read from file:
     /opt/project/dorye_projects/brazil_kpm/lda_pp/Mo.rel.UPF
     MD5 check sum: a75c5d58aa0038eca1683e5b7c874a9a
     Pseudo is Ultrasoft + core correction, Zval = 14.0
     Generated using "atomic" code by A. Dal Corso  v.5.0.2 svn rev. 9415
     Using radial grid of 1229 points, 10 beta functions with:
                l(1) =   0
                l(2) =   0
                l(3) =   1
                l(4) =   1
                l(5) =   1
                l(6) =   1
                l(7) =   2
                l(8) =   2
                l(9) =   2
               l(10) =   2
     Q(r) pseudized with 0 coefficients

     PseudoPot. # 2 for S  read from file:
     /opt/project/dorye_projects/brazil_kpm/lda_pp/S.rel.UPF
     MD5 check sum: 9744309cda5a9b17497ad7b7df5b4d76
     Pseudo is Ultrasoft + core correction, Zval =  6.0
     Generated using "atomic" code by A. Dal Corso  v.5.0.2 svn rev. 9415
     Using radial grid of 1151 points,  6 beta functions with:
                l(1) =   0
                l(2) =   0
                l(3) =   1
                l(4) =   1
                l(5) =   1
                l(6) =   1
     Q(r) pseudized with 0 coefficients

     atomic species   valence    mass     pseudopotential
        Mo            14.00    95.95000     Mo( 1.00)
        S              6.00    32.06000     S ( 1.00)

      6 Sym. Ops. (no inversion) found

                                    s                        frac. trans.

      isym =  1     identity

 cryst.   s( 1) = (     1          0          0      )
                  (     0          1          0      )
                  (     0          0          1      )

 cart.    s( 1) = (  1.0000000  0.0000000  0.0000000 )
                  (  0.0000000  1.0000000  0.0000000 )
                  (  0.0000000  0.0000000  1.0000000 )

      isym =  2     120 deg rotation - cryst. axis [0,0,1]

[...]

      isym =  3     120 deg rotation - cryst. axis [0,0,-1]

[...]

      isym =  4     inv. 180 deg rotation - cart. axis [1,0,0]

[...]

      isym =  5     inv. 180 deg rotation - cryst. axis [0,1,0]

[...]

      isym =  6     inv. 180 deg rotation - cryst. axis [1,1,0]

 cryst.   s( 6) = (     0         -1          0      )
                  (    -1          0          0      )
                  (     0          0          1      )

 cart.    s( 6) = (  0.5000000 -0.8660254  0.0000000 )
                  ( -0.8660254 -0.5000000  0.0000000 )
                  (  0.0000000  0.0000000  1.0000000 )

   Cartesian axes

     site n.     atom                  positions (alat units)
         1           Mo  tau(   1) = (  -0.0000000   0.5773503   0.4954659  )
         2           S   tau(   2) = (   0.5000000   0.2886751   0.0044724  )
         3           S   tau(   3) = (   0.5000000   0.2886751   0.9864392  )

   Crystallographic axes

     site n.     atom                  positions (cryst. coord.)
         1           Mo  tau(   1) = (  0.3333333  0.6666667  0.0868553  )
         2           S   tau(   2) = (  0.6666667  0.3333333  0.0007840  )
         3           S   tau(   3) = (  0.6666667  0.3333333  0.1729231  )

     number of k points=    42  Marzari-Vanderbilt smearing, width (Ry)=  0.0030
                       cart. coord. in units 2pi/alat
        k(    1) = (   0.0416667   0.0721688  -0.0876502), wk =   0.0138889
        k(    2) = (   0.0416667   0.1683938  -0.0876502), wk =   0.0277778
        k(    3) = (   0.0416667   0.2646189  -0.0876502), wk =   0.0277778
        k(    4) = (   0.0416667   0.3608439  -0.0876502), wk =   0.0277778
        k(    5) = (   0.0416667   0.4570690  -0.0876502), wk =   0.0277778
        k(    6) = (   0.0416667   0.5532940  -0.0876502), wk =   0.0277778
        k(    7) = (   0.0416667  -0.5051815  -0.0876502), wk =   0.0277778
        k(    8) = (   0.0416667  -0.4089564  -0.0876502), wk =   0.0277778
        k(    9) = (   0.0416667  -0.3127314  -0.0876502), wk =   0.0277778
        k(   10) = (   0.0416667  -0.2165064  -0.0876502), wk =   0.0277778
        k(   11) = (   0.0416667  -0.1202813  -0.0876502), wk =   0.0277778
        k(   12) = (   0.0416667  -0.0240563  -0.0876502), wk =   0.0138889
        k(   13) = (   0.1250000   0.2165064  -0.0876502), wk =   0.0138889
        k(   14) = (   0.1250000   0.3127314  -0.0876502), wk =   0.0277778
        k(   15) = (   0.1250000   0.4089564  -0.0876502), wk =   0.0277778
        k(   16) = (   0.1250000   0.5051815  -0.0876502), wk =   0.0277778
        k(   17) = (   0.1250000   0.6014065  -0.0876502), wk =   0.0277778
        k(   18) = (   0.1250000  -0.4570690  -0.0876502), wk =   0.0277778
        k(   19) = (   0.1250000  -0.3608439  -0.0876502), wk =   0.0277778
        k(   20) = (   0.1250000  -0.2646189  -0.0876502), wk =   0.0277778
        k(   21) = (   0.1250000  -0.1683938  -0.0876502), wk =   0.0277778
        k(   22) = (   0.1250000  -0.0721688  -0.0876502), wk =   0.0138889
        k(   23) = (   0.2083333   0.3608439  -0.0876502), wk =   0.0138889
        k(   24) = (   0.2083333   0.4570690  -0.0876502), wk =   0.0277778
        k(   25) = (   0.2083333   0.5532940  -0.0876502), wk =   0.0277778
        k(   26) = (   0.2083333   0.6495191  -0.0876502), wk =   0.0277778
        k(   27) = (   0.2083333  -0.4089564  -0.0876502), wk =   0.0277778
        k(   28) = (   0.2083333  -0.3127314  -0.0876502), wk =   0.0277778
        k(   29) = (   0.2083333  -0.2165064  -0.0876502), wk =   0.0277778
        k(   30) = (   0.2083333  -0.1202813  -0.0876502), wk =   0.0138889
        k(   31) = (   0.2916667   0.5051815  -0.0876502), wk =   0.0138889
        k(   32) = (   0.2916667   0.6014065  -0.0876502), wk =   0.0277778
        k(   33) = (   0.2916667   0.6976316  -0.0876502), wk =   0.0277778
        k(   34) = (   0.2916667  -0.3608439  -0.0876502), wk =   0.0277778
        k(   35) = (   0.2916667  -0.2646189  -0.0876502), wk =   0.0277778
        k(   36) = (   0.2916667  -0.1683938  -0.0876502), wk =   0.0138889
        k(   37) = (   0.3750000   0.6495191  -0.0876502), wk =   0.0138889
        k(   38) = (   0.3750000   0.7457441  -0.0876502), wk =   0.0277778
        k(   39) = (   0.3750000  -0.3127314  -0.0876502), wk =   0.0277778
        k(   40) = (   0.3750000  -0.2165064  -0.0876502), wk =   0.0138889
        k(   41) = (   0.4583333   0.7938566  -0.0876502), wk =   0.0138889
        k(   42) = (   0.4583333  -0.2646189  -0.0876502), wk =   0.0138889

                       cryst. coord.
        k(    1) = (   0.0416667   0.0416667  -0.5000000), wk =   0.0138889
        k(    2) = (   0.0416667   0.1250000  -0.5000000), wk =   0.0277778
        k(    3) = (   0.0416667   0.2083333  -0.5000000), wk =   0.0277778
        k(    4) = (   0.0416667   0.2916667  -0.5000000), wk =   0.0277778
        k(    5) = (   0.0416667   0.3750000  -0.5000000), wk =   0.0277778
        k(    6) = (   0.0416667   0.4583333  -0.5000000), wk =   0.0277778
        k(    7) = (   0.0416667  -0.4583333  -0.5000000), wk =   0.0277778
        k(    8) = (   0.0416667  -0.3750000  -0.5000000), wk =   0.0277778
        k(    9) = (   0.0416667  -0.2916667  -0.5000000), wk =   0.0277778
        k(   10) = (   0.0416667  -0.2083333  -0.5000000), wk =   0.0277778
        k(   11) = (   0.0416667  -0.1250000  -0.5000000), wk =   0.0277778
        k(   12) = (   0.0416667  -0.0416667  -0.5000000), wk =   0.0138889
        k(   13) = (   0.1250000   0.1250000  -0.5000000), wk =   0.0138889
        k(   14) = (   0.1250000   0.2083333  -0.5000000), wk =   0.0277778
        k(   15) = (   0.1250000   0.2916667  -0.5000000), wk =   0.0277778
        k(   16) = (   0.1250000   0.3750000  -0.5000000), wk =   0.0277778
        k(   17) = (   0.1250000   0.4583333  -0.5000000), wk =   0.0277778
        k(   18) = (   0.1250000  -0.4583333  -0.5000000), wk =   0.0277778
        k(   19) = (   0.1250000  -0.3750000  -0.5000000), wk =   0.0277778
        k(   20) = (   0.1250000  -0.2916667  -0.5000000), wk =   0.0277778
        k(   21) = (   0.1250000  -0.2083333  -0.5000000), wk =   0.0277778
        k(   22) = (   0.1250000  -0.1250000  -0.5000000), wk =   0.0138889
        k(   23) = (   0.2083333   0.2083333  -0.5000000), wk =   0.0138889
        k(   24) = (   0.2083333   0.2916667  -0.5000000), wk =   0.0277778
        k(   25) = (   0.2083333   0.3750000  -0.5000000), wk =   0.0277778
        k(   26) = (   0.2083333   0.4583333  -0.5000000), wk =   0.0277778
        k(   27) = (   0.2083333  -0.4583333  -0.5000000), wk =   0.0277778
        k(   28) = (   0.2083333  -0.3750000  -0.5000000), wk =   0.0277778
        k(   29) = (   0.2083333  -0.2916667  -0.5000000), wk =   0.0277778
        k(   30) = (   0.2083333  -0.2083333  -0.5000000), wk =   0.0138889
        k(   31) = (   0.2916667   0.2916667  -0.5000000), wk =   0.0138889
        k(   32) = (   0.2916667   0.3750000  -0.5000000), wk =   0.0277778
        k(   33) = (   0.2916667   0.4583333  -0.5000000), wk =   0.0277778
        k(   34) = (   0.2916667  -0.4583333  -0.5000000), wk =   0.0277778
        k(   35) = (   0.2916667  -0.3750000  -0.5000000), wk =   0.0277778
        k(   36) = (   0.2916667  -0.2916667  -0.5000000), wk =   0.0138889
        k(   37) = (   0.3750000   0.3750000  -0.5000000), wk =   0.0138889
        k(   38) = (   0.3750000   0.4583333  -0.5000000), wk =   0.0277778
        k(   39) = (   0.3750000  -0.4583333  -0.5000000), wk =   0.0277778
        k(   40) = (   0.3750000  -0.3750000  -0.5000000), wk =   0.0138889
        k(   41) = (   0.4583333   0.4583333  -0.5000000), wk =   0.0138889
        k(   42) = (   0.4583333  -0.4583333  -0.5000000), wk =   0.0138889

     Initial potential from superposition of free atoms

     starting charge      25.9989, renormalised to      26.0000

     negative rho (up, down):  2.446E-04 0.000E+00
     Starting wfcs are   42 randomized atomic wfcs

     Self-consistent Calculation

     iteration #  1     ecut=   120.00 Ry     beta= 0.10
     Davidson diagonalization with overlap

     ethr =  1.00E-02,  avg # of iterations =  2.9

     negative rho (up, down):  2.124E-04 0.000E+00

     total energy              =    -193.89914933 Ry
     estimated scf accuracy    <       0.46401391 Ry

[...]

     total energy              =    -193.88857351 Ry
     estimated scf accuracy    <       0.00000010 Ry

     iteration # 14     ecut=   120.00 Ry     beta= 0.10
     Davidson diagonalization with overlap

     ethr =  3.98E-10,  avg # of iterations =  2.0

     negative rho (up, down):  5.548E-05 0.000E+00

     End of self-consistent calculation

          k = 0.0417 0.0722-0.0877 ( 23916 PWs)   bands (ev):

   -61.3835 -61.3835 -37.2025 -37.2024 -34.7304 -34.7303 -34.5832 -34.5828
   -14.6499 -14.6497 -13.3751 -13.3751  -6.2306  -6.2303  -3.4879  -3.4801
    -3.2244  -3.2167  -2.8618  -2.8605  -2.3180  -2.3101  -1.8805  -1.8699
    -0.7456  -0.7453   1.9449   1.9655   2.1067   2.1071   2.2182   2.2198
     2.2585   2.2736

     occupation numbers
     1.0000   1.0000   1.0000   1.0000   1.0000   1.0000   1.0000   1.0000
     1.0000   1.0000   1.0000   1.0000   1.0000   1.0000   1.0000   1.0000
     1.0000   1.0000   1.0000   1.0000   1.0000   1.0000   1.0000   1.0000
     1.0000   1.0000   0.0000   0.0000   0.0000   0.0000   0.0000   0.0000
     0.0000   0.0000

[...]

          k = 0.4583-0.2646-0.0877 ( 23796 PWs)   bands (ev):

   -61.3477 -61.3477 -37.3076 -37.3076 -34.8777 -34.8777 -34.6935 -34.6935
   -12.8734 -12.8734 -12.6629 -12.6629  -6.4419  -6.4419  -5.4459  -5.4459
    -4.7312  -4.7312  -3.8322  -3.8322  -2.5271  -2.5271  -1.6557  -1.6557
    -1.3714  -1.3714   1.5280   1.5280   2.0103   2.0103   3.1345   3.1345
     3.6002   3.6002

     occupation numbers
     1.0000   1.0000   1.0000   1.0000   1.0000   1.0000   1.0000   1.0000
     1.0000   1.0000   1.0000   1.0000   1.0000   1.0000   1.0000   1.0000
     1.0000   1.0000   1.0000   1.0000   1.0000   1.0000   1.0000   1.0000
     1.0000   1.0000   0.0000   0.0000   0.0000   0.0000   0.0000   0.0000
     0.0000   0.0000

     the Fermi energy is     0.4301 ev

!    total energy              =    -193.88857363 Ry
     estimated scf accuracy    <       0.00000005 Ry
     smearing contrib. (-TS)   =       0.00000000 Ry
     internal energy E=F+TS    =    -193.88857363 Ry

     The total energy is F=E-TS. E is the sum of the following terms:
     one-electron contribution =    -966.37491415 Ry
     hartree contribution      =     484.35686478 Ry
     xc contribution           =     -42.60658601 Ry
     ewald contribution        =     330.73606174 Ry

     convergence has been achieved in  14 iterations

     Writing all to output data dir ./tmp/mos2.save/

     General routines

     Parallel routines

   This run was terminated on:  13: 4:32  19Jun2025

   JOB DONE.