     Program PWSCF v.7.2 starts on 19Jun2025 at 13:36:18

     Reading input from ptse2.scf.in

     Current dimensions of program PWSCF are:
     Max number of different atomic species (ntypx) = 10
     Max number of k-points (npk) =  40000
     Max angular momentum in pseudopotentials (lmaxx) =  4
     Message from routine setup:
     using ibrav=0 with symmetry is DISCOURAGED, use correct ibrav instead

     R & G space division:  proc/nbgrp/npool/nimage =      10
     Subspace diagonalization in iterative solution of the eigenvalue problem:
     a serial algorithm will be used

     Using Slab Decomposition

     bravais-lattice index     =            0
     lattice parameter (alat)  =       7.0430  a.u.
     unit-cell volume          =    2435.3830 (a.u.)^3
     number of atoms/cell      =            3
     number of atomic types    =            2
     number of electrons       =        22.00
     number of Kohn-Sham states=           15
     kinetic-energy cutoff     =     120.0000  Ry
     charge density cutoff     =    1200.0000  Ry
     scf convergence threshold =      1.0E-07
     mixing beta               =       0.1000
     number of iterations used =            8  plain     mixing
     Exchange-correlation= LDA
                           (   1   1   0   0   0   0   0)

     celldm(1)=   7.043009  celldm(2)=   0.000000  celldm(3)=   0.000000
     celldm(4)=   0.000000  celldm(5)=   0.000000  celldm(6)=   0.000000

     crystal axes: (cart. coord. in units of alat)
               a(1) = (   1.000000   0.000000   0.000000 )
               a(2) = (  -0.500000   0.866025   0.000000 )
               a(3) = (   0.000000   0.000000   8.049369 )

     reciprocal axes: (cart. coord. in units 2 pi/alat)
               b(1) = (  1.000000  0.577350 -0.000000 )
               b(2) = (  0.000000  1.154701  0.000000 )
               b(3) = (  0.000000 -0.000000  0.124233 )

     PseudoPot. # 1 for Pt read from file:
     /opt/project/dorye_projects/brazil_kpm/lda_pp/Pt.UPF
     MD5 check sum: 1074774312c4d24aa76e1639557e07bf
     Pseudo is Ultrasoft + core correction, Zval = 10.0
     Generated using "atomic" code by A. Dal Corso  v.5.0.2 svn rev. 9415
     Using radial grid of 1277 points,  6 beta functions with:
                l(1) =   0
                l(2) =   0
                l(3) =   1
                l(4) =   1
                l(5) =   2
                l(6) =   2
     Q(r) pseudized with 0 coefficients

     PseudoPot. # 2 for Se read from file:
     /opt/project/dorye_projects/brazil_kpm/lda_pp/Se.UPF
     MD5 check sum: 25603cecb1b2b0d484ba6e75ea72c72e
     Pseudo is Ultrasoft + core correction, Zval =  6.0
     Generated using "atomic" code by A. Dal Corso  v.5.0.2 svn rev. 9415
     Using radial grid of 1211 points,  4 beta functions with:
                l(1) =   0
                l(2) =   0
                l(3) =   1
                l(4) =   1
     Q(r) pseudized with 0 coefficients

     atomic species   valence    mass     pseudopotential
        Pt            10.00   195.08000     Pt( 1.00)
        Se             6.00    78.97100     Se( 1.00)

      6 Sym. Ops. (no inversion) found

                                    s                        frac. trans.

      isym =  1     identity

 cryst.   s( 1) = (     1          0          0      )
                  (     0          1          0      )
                  (     0          0          1      )

 cart.    s( 1) = (  1.0000000  0.0000000  0.0000000 )
                  (  0.0000000  1.0000000  0.0000000 )
                  (  0.0000000  0.0000000  1.0000000 )

      isym =  2     120 deg rotation - cryst. axis [0,0,1]

[...]

      isym =  3     120 deg rotation - cryst. axis [0,0,-1]

[...]

      isym =  4     inv. 180 deg rotation - cart. axis [1,0,0]

[...]

      isym =  5     inv. 180 deg rotation - cryst. axis [0,1,0]

[...]

      isym =  6     inv. 180 deg rotation - cryst. axis [1,1,0]

 cryst.   s( 6) = (     0         -1          0      )
                  (    -1          0          0      )
                  (     0          0          1      )

 cart.    s( 6) = (  0.5000000 -0.8660254  0.0000000 )
                  ( -0.8660254 -0.5000000  0.0000000 )
                  (  0.0000000  0.0000000  1.0000000 )

   Cartesian axes

     site n.     atom                  positions (alat units)
         1           Pt  tau(   1) = (   0.0000000   0.0000000   1.3635632  )
         2           Se  tau(   2) = (  -0.0000005   0.5773506   1.7112718  )
         3           Se  tau(   3) = (   0.5000005   0.2886748   1.0158546  )

   Crystallographic axes

     site n.     atom                  positions (cryst. coord.)
         1           Pt  tau(   1) = (  0.0000000  0.0000000  0.1694000  )
         2           Se  tau(   2) = (  0.3333330  0.6666670  0.2125970  )
         3           Se  tau(   3) = (  0.6666670  0.3333330  0.1262030  )

     number of k points=    42  Marzari-Vanderbilt smearing, width (Ry)=  0.0030
                       cart. coord. in units 2pi/alat
        k(    1) = (   0.0416667   0.0721688  -0.0621167), wk =   0.0277778
        k(    2) = (   0.0416667   0.1683938  -0.0621167), wk =   0.0555556
        k(    3) = (   0.0416667   0.2646189  -0.0621167), wk =   0.0555556
        k(    4) = (   0.0416667   0.3608439  -0.0621167), wk =   0.0555556
        k(    5) = (   0.0416667   0.4570690  -0.0621167), wk =   0.0555556
        k(    6) = (   0.0416667   0.5532940  -0.0621167), wk =   0.0555556
        k(    7) = (   0.0416667  -0.5051815  -0.0621167), wk =   0.0555556
        k(    8) = (   0.0416667  -0.4089564  -0.0621167), wk =   0.0555556
        k(    9) = (   0.0416667  -0.3127314  -0.0621167), wk =   0.0555556
        k(   10) = (   0.0416667  -0.2165064  -0.0621167), wk =   0.0555556
        k(   11) = (   0.0416667  -0.1202813  -0.0621167), wk =   0.0555556
        k(   12) = (   0.0416667  -0.0240563  -0.0621167), wk =   0.0277778
        k(   13) = (   0.1250000   0.2165064  -0.0621167), wk =   0.0277778
        k(   14) = (   0.1250000   0.3127314  -0.0621167), wk =   0.0555556
        k(   15) = (   0.1250000   0.4089564  -0.0621167), wk =   0.0555556
        k(   16) = (   0.1250000   0.5051815  -0.0621167), wk =   0.0555556
        k(   17) = (   0.1250000   0.6014065  -0.0621167), wk =   0.0555556
        k(   18) = (   0.1250000  -0.4570690  -0.0621167), wk =   0.0555556
        k(   19) = (   0.1250000  -0.3608439  -0.0621167), wk =   0.0555556
        k(   20) = (   0.1250000  -0.2646189  -0.0621167), wk =   0.0555556
        k(   21) = (   0.1250000  -0.1683938  -0.0621167), wk =   0.0555556
        k(   22) = (   0.1250000  -0.0721688  -0.0621167), wk =   0.0277778
        k(   23) = (   0.2083333   0.3608439  -0.0621167), wk =   0.0277778
        k(   24) = (   0.2083333   0.4570690  -0.0621167), wk =   0.0555556
        k(   25) = (   0.2083333   0.5532940  -0.0621167), wk =   0.0555556
        k(   26) = (   0.2083333   0.6495191  -0.0621167), wk =   0.0555556
        k(   27) = (   0.2083333  -0.4089564  -0.0621167), wk =   0.0555556
        k(   28) = (   0.2083333  -0.3127314  -0.0621167), wk =   0.0555556
        k(   29) = (   0.2083333  -0.2165064  -0.0621167), wk =   0.0555556
        k(   30) = (   0.2083333  -0.1202813  -0.0621167), wk =   0.0277778
        k(   31) = (   0.2916667   0.5051815  -0.0621167), wk =   0.0277778
        k(   32) = (   0.2916667   0.6014065  -0.0621167), wk =   0.0555556
        k(   33) = (   0.2916667   0.6976316  -0.0621167), wk =   0.0555556
        k(   34) = (   0.2916667  -0.3608439  -0.0621167), wk =   0.0555556
        k(   35) = (   0.2916667  -0.2646189  -0.0621167), wk =   0.0555556
        k(   36) = (   0.2916667  -0.1683938  -0.0621167), wk =   0.0277778
        k(   37) = (   0.3750000   0.6495191  -0.0621167), wk =   0.0277778
        k(   38) = (   0.3750000   0.7457441  -0.0621167), wk =   0.0555556
        k(   39) = (   0.3750000  -0.3127314  -0.0621167), wk =   0.0555556
        k(   40) = (   0.3750000  -0.2165064  -0.0621167), wk =   0.0277778
        k(   41) = (   0.4583333   0.7938566  -0.0621167), wk =   0.0277778
        k(   42) = (   0.4583333  -0.2646189  -0.0621167), wk =   0.0277778

                       cryst. coord.
        k(    1) = (   0.0416667   0.0416667  -0.5000000), wk =   0.0277778
        k(    2) = (   0.0416667   0.1250000  -0.5000000), wk =   0.0555556
        k(    3) = (   0.0416667   0.2083333  -0.5000000), wk =   0.0555556
        k(    4) = (   0.0416667   0.2916667  -0.5000000), wk =   0.0555556
        k(    5) = (   0.0416667   0.3750000  -0.5000000), wk =   0.0555556
        k(    6) = (   0.0416667   0.4583333  -0.5000000), wk =   0.0555556
        k(    7) = (   0.0416667  -0.4583333  -0.5000000), wk =   0.0555556
        k(    8) = (   0.0416667  -0.3750000  -0.5000000), wk =   0.0555556
        k(    9) = (   0.0416667  -0.2916667  -0.5000000), wk =   0.0555556
        k(   10) = (   0.0416667  -0.2083333  -0.5000000), wk =   0.0555556
        k(   11) = (   0.0416667  -0.1250000  -0.5000000), wk =   0.0555556
        k(   12) = (   0.0416667  -0.0416667  -0.5000000), wk =   0.0277778
        k(   13) = (   0.1250000   0.1250000  -0.5000000), wk =   0.0277778
        k(   14) = (   0.1250000   0.2083333  -0.5000000), wk =   0.0555556
        k(   15) = (   0.1250000   0.2916667  -0.5000000), wk =   0.0555556
        k(   16) = (   0.1250000   0.3750000  -0.5000000), wk =   0.0555556
        k(   17) = (   0.1250000   0.4583333  -0.5000000), wk =   0.0555556
        k(   18) = (   0.1250000  -0.4583333  -0.5000000), wk =   0.0555556
        k(   19) = (   0.1250000  -0.3750000  -0.5000000), wk =   0.0555556
        k(   20) = (   0.1250000  -0.2916667  -0.5000000), wk =   0.0555556
        k(   21) = (   0.1250000  -0.2083333  -0.5000000), wk =   0.0555556
        k(   22) = (   0.1250000  -0.1250000  -0.5000000), wk =   0.0277778
        k(   23) = (   0.2083333   0.2083333  -0.5000000), wk =   0.0277778
        k(   24) = (   0.2083333   0.2916667  -0.5000000), wk =   0.0555556
        k(   25) = (   0.2083333   0.3750000  -0.5000000), wk =   0.0555556
        k(   26) = (   0.2083333   0.4583333  -0.5000000), wk =   0.0555556
        k(   27) = (   0.2083333  -0.4583333  -0.5000000), wk =   0.0555556
        k(   28) = (   0.2083333  -0.3750000  -0.5000000), wk =   0.0555556
        k(   29) = (   0.2083333  -0.2916667  -0.5000000), wk =   0.0555556
        k(   30) = (   0.2083333  -0.2083333  -0.5000000), wk =   0.0277778
        k(   31) = (   0.2916667   0.2916667  -0.5000000), wk =   0.0277778
        k(   32) = (   0.2916667   0.3750000  -0.5000000), wk =   0.0555556
        k(   33) = (   0.2916667   0.4583333  -0.5000000), wk =   0.0555556
        k(   34) = (   0.2916667  -0.4583333  -0.5000000), wk =   0.0555556
        k(   35) = (   0.2916667  -0.3750000  -0.5000000), wk =   0.0555556
        k(   36) = (   0.2916667  -0.2916667  -0.5000000), wk =   0.0277778
        k(   37) = (   0.3750000   0.3750000  -0.5000000), wk =   0.0277778
        k(   38) = (   0.3750000   0.4583333  -0.5000000), wk =   0.0555556
        k(   39) = (   0.3750000  -0.4583333  -0.5000000), wk =   0.0555556
        k(   40) = (   0.3750000  -0.3750000  -0.5000000), wk =   0.0277778
        k(   41) = (   0.4583333   0.4583333  -0.5000000), wk =   0.0277778
        k(   42) = (   0.4583333  -0.4583333  -0.5000000), wk =   0.0277778

     Initial potential from superposition of free atoms

     starting charge      21.9997, renormalised to      22.0000

     negative rho (up, down):  1.454E-04 0.000E+00
     Starting wfcs are   17 randomized atomic wfcs

     Self-consistent Calculation

     iteration #  1     ecut=   120.00 Ry     beta= 0.10
     Davidson diagonalization with overlap

     ethr =  1.00E-02,  avg # of iterations =  4.8

     negative rho (up, down):  9.856E-05 0.000E+00

     total energy              =    -128.02360437 Ry
     estimated scf accuracy    <       0.25139541 Ry

[...]

     total energy              =    -128.01859478 Ry
     estimated scf accuracy    <       0.00000038 Ry

     iteration # 13     ecut=   120.00 Ry     beta= 0.10
     Davidson diagonalization with overlap

     ethr =  1.75E-09,  avg # of iterations =  1.6

     negative rho (up, down):  6.988E-06 0.000E+00

     End of self-consistent calculation

          k = 0.0417 0.0722-0.0621 ( 54156 PWs)   bands (ev):

   -17.5455 -15.7528  -8.6768  -8.6350  -8.5362  -6.4263  -6.4029  -4.9016
    -3.9608  -3.5118  -3.4730  -0.8872  -0.5963   1.2390   2.0213

     occupation numbers
     1.0000   1.0000   1.0000   1.0000   1.0000   1.0000   1.0000   1.0000
     1.0000   1.0000   1.0000   0.0000   0.0000   0.0000   0.0000

[...]

          k = 0.4583-0.2646-0.0621 ( 54092 PWs)   bands (ev):

   -16.1692 -15.9242  -9.6028  -8.1895  -7.5973  -7.1912  -5.9340  -5.7322
    -5.5381  -5.2042  -4.7441  -1.1334  -0.7531   1.1421   2.6910

     occupation numbers
     1.0000   1.0000   1.0000   1.0000   1.0000   1.0000   1.0000   1.0000
     1.0000   1.0000   1.0000   0.0000   0.0000   0.0000   0.0000

     the Fermi energy is    -2.3141 ev

!    total energy              =    -128.01859487 Ry
     estimated scf accuracy    <       0.00000006 Ry
     smearing contrib. (-TS)   =      -0.00000000 Ry
     internal energy E=F+TS    =    -128.01859487 Ry

     The total energy is F=E-TS. E is the sum of the following terms:
     one-electron contribution =   -1011.45538926 Ry
     hartree contribution      =     512.39742458 Ry
     xc contribution           =     -58.27697601 Ry
     ewald contribution        =     429.31634582 Ry

     convergence has been achieved in  13 iterations

     Writing all to output data dir ./tmp/ptse2.save/

     General routines

     Parallel routines

   This run was terminated on:  13:40:49  19Jun2025

   JOB DONE.