     Program PWSCF v.7.2 starts on 19Jun2025 at 13:25:24

     Reading input from mos2.scf.in

     Current dimensions of program PWSCF are:
     Max number of different atomic species (ntypx) = 10
     Max number of k-points (npk) =  40000
     Max angular momentum in pseudopotentials (lmaxx) =  4
     Message from routine setup:
     using ibrav=0 with symmetry is DISCOURAGED, use correct ibrav instead

     R & G space division:  proc/nbgrp/npool/nimage =      20
     Subspace diagonalization in iterative solution of the eigenvalue problem:
     a serial algorithm will be used

     Using Slab Decomposition

     bravais-lattice index     =            0
     lattice parameter (alat)  =       6.0137  a.u.
     unit-cell volume          =    1074.4427 (a.u.)^3
     number of atoms/cell      =            3
     number of atomic types    =            2
     number of electrons       =        26.00
     number of Kohn-Sham states=           17
     kinetic-energy cutoff     =     120.0000  Ry
     charge density cutoff     =    1200.0000  Ry
     scf convergence threshold =      1.0E-07
     mixing beta               =       0.1000
     number of iterations used =            8  plain     mixing
     Exchange-correlation= LDA
                           (   1   1   0   0   0   0   0)

     celldm(1)=   6.013746  celldm(2)=   0.000000  celldm(3)=   0.000000
     celldm(4)=   0.000000  celldm(5)=   0.000000  celldm(6)=   0.000000

     crystal axes: (cart. coord. in units of alat)
               a(1) = (   1.000000  -0.000000   0.000000 )
               a(2) = (  -0.500000   0.866025   0.000000 )
               a(3) = (   0.000000   0.000000   5.704496 )

     reciprocal axes: (cart. coord. in units 2 pi/alat)
               b(1) = (  1.000000  0.577350 -0.000000 )
               b(2) = (  0.000000  1.154701 -0.000000 )
               b(3) = ( -0.000000 -0.000000  0.175300 )

     PseudoPot. # 1 for Mo read from file:
     /opt/project/dorye_projects/brazil_kpm/lda_pp/Mo.UPF
     MD5 check sum: f2cb183f839b9eb3dc69b5e2ce0ded2e
     Pseudo is Ultrasoft + core correction, Zval = 14.0
     Generated using "atomic" code by A. Dal Corso  v.5.0.2 svn rev. 9415
     Using radial grid of 1229 points,  6 beta functions with:
                l(1) =   0
                l(2) =   0
                l(3) =   1
                l(4) =   1
                l(5) =   2
                l(6) =   2
     Q(r) pseudized with 0 coefficients

     PseudoPot. # 2 for S  read from file:
     /opt/project/dorye_projects/brazil_kpm/lda_pp/S.UPF
     MD5 check sum: fce4376d1d3ac8b10d990fc1f69cce3a
     Pseudo is Ultrasoft + core correction, Zval =  6.0
     Generated using "atomic" code by A. Dal Corso  v.5.0.2 svn rev. 9415
     Using radial grid of 1151 points,  4 beta functions with:
                l(1) =   0
                l(2) =   0
                l(3) =   1
                l(4) =   1
     Q(r) pseudized with 0 coefficients

     atomic species   valence    mass     pseudopotential
        Mo            14.00    95.95000     Mo( 1.00)
        S              6.00    32.06000     S ( 1.00)

      6 Sym. Ops. (no inversion) found

                                    s                        frac. trans.

      isym =  1     identity

 cryst.   s( 1) = (     1          0          0      )
                  (     0          1          0      )
                  (     0          0          1      )

 cart.    s( 1) = (  1.0000000  0.0000000  0.0000000 )
                  (  0.0000000  1.0000000  0.0000000 )
                  (  0.0000000  0.0000000  1.0000000 )

      isym =  2     120 deg rotation - cryst. axis [0,0,1]

[...]

      isym =  3     120 deg rotation - cryst. axis [0,0,-1]

[...]

      isym =  4     inv. 180 deg rotation - cart. axis [1,0,0]

[...]

      isym =  5     inv. 180 deg rotation - cryst. axis [0,1,0]

[...]

      isym =  6     inv. 180 deg rotation - cryst. axis [1,1,0]

 cryst.   s( 6) = (     0         -1          0      )
                  (    -1          0          0      )
                  (     0          0          1      )

 cart.    s( 6) = (  0.5000000 -0.8660254  0.0000000 )
                  ( -0.8660254 -0.5000000  0.0000000 )
                  (  0.0000000  0.0000000  1.0000000 )

   Cartesian axes

     site n.     atom                  positions (alat units)
         1           Mo  tau(   1) = (  -0.0000000   0.5773503   0.4954659  )
         2           S   tau(   2) = (   0.5000000   0.2886751   0.0044724  )
         3           S   tau(   3) = (   0.5000000   0.2886751   0.9864392  )

   Crystallographic axes

     site n.     atom                  positions (cryst. coord.)
         1           Mo  tau(   1) = (  0.3333333  0.6666667  0.0868553  )
         2           S   tau(   2) = (  0.6666667  0.3333333  0.0007840  )
         3           S   tau(   3) = (  0.6666667  0.3333333  0.1729231  )

     number of k points=    42  Marzari-Vanderbilt smearing, width (Ry)=  0.0030
                       cart. coord. in units 2pi/alat
        k(    1) = (   0.0416667   0.0721688  -0.0876502), wk =   0.0277778
        k(    2) = (   0.0416667   0.1683938  -0.0876502), wk =   0.0555556
        k(    3) = (   0.0416667   0.2646189  -0.0876502), wk =   0.0555556
        k(    4) = (   0.0416667   0.3608439  -0.0876502), wk =   0.0555556
        k(    5) = (   0.0416667   0.4570690  -0.0876502), wk =   0.0555556
        k(    6) = (   0.0416667   0.5532940  -0.0876502), wk =   0.0555556
        k(    7) = (   0.0416667  -0.5051815  -0.0876502), wk =   0.0555556
        k(    8) = (   0.0416667  -0.4089564  -0.0876502), wk =   0.0555556
        k(    9) = (   0.0416667  -0.3127314  -0.0876502), wk =   0.0555556
        k(   10) = (   0.0416667  -0.2165064  -0.0876502), wk =   0.0555556
        k(   11) = (   0.0416667  -0.1202813  -0.0876502), wk =   0.0555556
        k(   12) = (   0.0416667  -0.0240563  -0.0876502), wk =   0.0277778
        k(   13) = (   0.1250000   0.2165064  -0.0876502), wk =   0.0277778
        k(   14) = (   0.1250000   0.3127314  -0.0876502), wk =   0.0555556
        k(   15) = (   0.1250000   0.4089564  -0.0876502), wk =   0.0555556
        k(   16) = (   0.1250000   0.5051815  -0.0876502), wk =   0.0555556
        k(   17) = (   0.1250000   0.6014065  -0.0876502), wk =   0.0555556
        k(   18) = (   0.1250000  -0.4570690  -0.0876502), wk =   0.0555556
        k(   19) = (   0.1250000  -0.3608439  -0.0876502), wk =   0.0555556
        k(   20) = (   0.1250000  -0.2646189  -0.0876502), wk =   0.0555556
        k(   21) = (   0.1250000  -0.1683938  -0.0876502), wk =   0.0555556
        k(   22) = (   0.1250000  -0.0721688  -0.0876502), wk =   0.0277778
        k(   23) = (   0.2083333   0.3608439  -0.0876502), wk =   0.0277778
        k(   24) = (   0.2083333   0.4570690  -0.0876502), wk =   0.0555556
        k(   25) = (   0.2083333   0.5532940  -0.0876502), wk =   0.0555556
        k(   26) = (   0.2083333   0.6495191  -0.0876502), wk =   0.0555556
        k(   27) = (   0.2083333  -0.4089564  -0.0876502), wk =   0.0555556
        k(   28) = (   0.2083333  -0.3127314  -0.0876502), wk =   0.0555556
        k(   29) = (   0.2083333  -0.2165064  -0.0876502), wk =   0.0555556
        k(   30) = (   0.2083333  -0.1202813  -0.0876502), wk =   0.0277778
        k(   31) = (   0.2916667   0.5051815  -0.0876502), wk =   0.0277778
        k(   32) = (   0.2916667   0.6014065  -0.0876502), wk =   0.0555556
        k(   33) = (   0.2916667   0.6976316  -0.0876502), wk =   0.0555556
        k(   34) = (   0.2916667  -0.3608439  -0.0876502), wk =   0.0555556
        k(   35) = (   0.2916667  -0.2646189  -0.0876502), wk =   0.0555556
        k(   36) = (   0.2916667  -0.1683938  -0.0876502), wk =   0.0277778
        k(   37) = (   0.3750000   0.6495191  -0.0876502), wk =   0.0277778
        k(   38) = (   0.3750000   0.7457441  -0.0876502), wk =   0.0555556
        k(   39) = (   0.3750000  -0.3127314  -0.0876502), wk =   0.0555556
        k(   40) = (   0.3750000  -0.2165064  -0.0876502), wk =   0.0277778
        k(   41) = (   0.4583333   0.7938566  -0.0876502), wk =   0.0277778
        k(   42) = (   0.4583333  -0.2646189  -0.0876502), wk =   0.0277778

                       cryst. coord.
        k(    1) = (   0.0416667   0.0416667  -0.5000000), wk =   0.0277778
        k(    2) = (   0.0416667   0.1250000  -0.5000000), wk =   0.0555556
        k(    3) = (   0.0416667   0.2083333  -0.5000000), wk =   0.0555556
        k(    4) = (   0.0416667   0.2916667  -0.5000000), wk =   0.0555556
        k(    5) = (   0.0416667   0.3750000  -0.5000000), wk =   0.0555556
        k(    6) = (   0.0416667   0.4583333  -0.5000000), wk =   0.0555556
        k(    7) = (   0.0416667  -0.4583333  -0.5000000), wk =   0.0555556
        k(    8) = (   0.0416667  -0.3750000  -0.5000000), wk =   0.0555556
        k(    9) = (   0.0416667  -0.2916667  -0.5000000), wk =   0.0555556
        k(   10) = (   0.0416667  -0.2083333  -0.5000000), wk =   0.0555556
        k(   11) = (   0.0416667  -0.1250000  -0.5000000), wk =   0.0555556
        k(   12) = (   0.0416667  -0.0416667  -0.5000000), wk =   0.0277778
        k(   13) = (   0.1250000   0.1250000  -0.5000000), wk =   0.0277778
        k(   14) = (   0.1250000   0.2083333  -0.5000000), wk =   0.0555556
        k(   15) = (   0.1250000   0.2916667  -0.5000000), wk =   0.0555556
        k(   16) = (   0.1250000   0.3750000  -0.5000000), wk =   0.0555556
        k(   17) = (   0.1250000   0.4583333  -0.5000000), wk =   0.0555556
        k(   18) = (   0.1250000  -0.4583333  -0.5000000), wk =   0.0555556
        k(   19) = (   0.1250000  -0.3750000  -0.5000000), wk =   0.0555556
        k(   20) = (   0.1250000  -0.2916667  -0.5000000), wk =   0.0555556
        k(   21) = (   0.1250000  -0.2083333  -0.5000000), wk =   0.0555556
        k(   22) = (   0.1250000  -0.1250000  -0.5000000), wk =   0.0277778
        k(   23) = (   0.2083333   0.2083333  -0.5000000), wk =   0.0277778
        k(   24) = (   0.2083333   0.2916667  -0.5000000), wk =   0.0555556
        k(   25) = (   0.2083333   0.3750000  -0.5000000), wk =   0.0555556
        k(   26) = (   0.2083333   0.4583333  -0.5000000), wk =   0.0555556
        k(   27) = (   0.2083333  -0.4583333  -0.5000000), wk =   0.0555556
        k(   28) = (   0.2083333  -0.3750000  -0.5000000), wk =   0.0555556
        k(   29) = (   0.2083333  -0.2916667  -0.5000000), wk =   0.0555556
        k(   30) = (   0.2083333  -0.2083333  -0.5000000), wk =   0.0277778
        k(   31) = (   0.2916667   0.2916667  -0.5000000), wk =   0.0277778
        k(   32) = (   0.2916667   0.3750000  -0.5000000), wk =   0.0555556
        k(   33) = (   0.2916667   0.4583333  -0.5000000), wk =   0.0555556
        k(   34) = (   0.2916667  -0.4583333  -0.5000000), wk =   0.0555556
        k(   35) = (   0.2916667  -0.3750000  -0.5000000), wk =   0.0555556
        k(   36) = (   0.2916667  -0.2916667  -0.5000000), wk =   0.0277778
        k(   37) = (   0.3750000   0.3750000  -0.5000000), wk =   0.0277778
        k(   38) = (   0.3750000   0.4583333  -0.5000000), wk =   0.0555556
        k(   39) = (   0.3750000  -0.4583333  -0.5000000), wk =   0.0555556
        k(   40) = (   0.3750000  -0.3750000  -0.5000000), wk =   0.0277778
        k(   41) = (   0.4583333   0.4583333  -0.5000000), wk =   0.0277778
        k(   42) = (   0.4583333  -0.4583333  -0.5000000), wk =   0.0277778

     Initial potential from superposition of free atoms

     starting charge      25.9990, renormalised to      26.0000

     negative rho (up, down):  2.136E-04 0.000E+00
     Starting wfcs are   21 randomized atomic wfcs

     Self-consistent Calculation

     iteration #  1     ecut=   120.00 Ry     beta= 0.10
     Davidson diagonalization with overlap

     ethr =  1.00E-02,  avg # of iterations =  2.9

     negative rho (up, down):  1.816E-04 0.000E+00

     total energy              =    -193.77560035 Ry
     estimated scf accuracy    <       0.43851003 Ry

[...]

     total energy              =    -193.76608605 Ry
     estimated scf accuracy    <       0.00000020 Ry

     iteration # 13     ecut=   120.00 Ry     beta= 0.10
     Davidson diagonalization with overlap

     ethr =  7.84E-10,  avg # of iterations =  3.9

     negative rho (up, down):  2.934E-05 0.000E+00

     End of self-consistent calculation

          k = 0.0417 0.0722-0.0877 ( 23916 PWs)   bands (ev):

   -61.4193 -35.6174 -35.4203 -35.4053 -14.6509 -13.3767  -6.2303  -3.4779
    -3.2210  -2.8613  -2.3127  -1.8765  -0.7498   1.9635   2.1058   2.2278
     2.2417

     occupation numbers
     1.0000   1.0000   1.0000   1.0000   1.0000   1.0000   1.0000   1.0000
     1.0000   1.0000   1.0000   1.0000   1.0000   0.0000   0.0000   0.0000
     0.0000

[...]

          k = 0.4583-0.2646-0.0877 ( 23796 PWs)   bands (ev):

   -61.3836 -35.7719 -35.5460 -35.4866 -12.8742 -12.6637  -6.4417  -5.4455
    -4.7304  -3.8310  -2.5244  -1.6500  -1.3797   1.5337   2.0049   3.1293
     3.5947

     occupation numbers
     1.0000   1.0000   1.0000   1.0000   1.0000   1.0000   1.0000   1.0000
     1.0000   1.0000   1.0000   1.0000   1.0000   0.0000   0.0000   0.0000
     0.0000

     the Fermi energy is     0.3860 ev

!    total energy              =    -193.76608632 Ry
     estimated scf accuracy    <       0.00000008 Ry
     smearing contrib. (-TS)   =       0.00000000 Ry
     internal energy E=F+TS    =    -193.76608632 Ry

     The total energy is F=E-TS. E is the sum of the following terms:
     one-electron contribution =    -966.26353103 Ry
     hartree contribution      =     484.25282293 Ry
     xc contribution           =     -42.49143996 Ry
     ewald contribution        =     330.73606174 Ry

     convergence has been achieved in  13 iterations

     Writing all to output data dir ./tmp/mos2.save/

     General routines

     Parallel routines

   This run was terminated on:  13:26:52  19Jun2025

   JOB DONE.